(set-logic QF_UF)
(declare-fun A0 () Bool)
(declare-fun A1 () Bool)
(declare-fun A2 () Bool)
(declare-fun A3 () Bool)
(declare-fun A4 () Bool)
(declare-fun A5 () Bool)
(declare-fun A6 () Bool)
(declare-fun A7 () Bool)
(declare-fun A8 () Bool)
(declare-fun A9 () Bool)
(declare-fun A10 () Bool)
(declare-fun A11 () Bool)
(declare-fun A12 () Bool)
(declare-fun A13 () Bool)
(declare-fun A14 () Bool)
(declare-fun A15 () Bool)
(declare-fun A16 () Bool)
(declare-fun A17 () Bool)
(declare-fun A18 () Bool)
(declare-fun A19 () Bool)
(declare-fun A20 () Bool)
(declare-fun A21 () Bool)
(declare-fun A22 () Bool)
(declare-fun A23 () Bool)
(declare-fun A24 () Bool)
(assert (let ((.def_0 (not A21))) (let ((.def_1 (not A1))) (let ((.def_2 (or .def_1 .def_0))) (let ((.def_3 (not A20))) (let ((.def_4 (and A4 .def_3))) (let ((.def_5 (= .def_4 .def_2))) (let ((.def_6 (not .def_5))) (let ((.def_7 (or A13 A23))) (let ((.def_8 (not A15))) (let ((.def_9 (and A13 .def_8))) (let ((.def_10 (not .def_9))) (let ((.def_11 (and .def_10 .def_7))) (let ((.def_12 (not .def_11))) (let ((.def_13 (or .def_12 .def_6))) (let ((.def_14 (not A0))) (let ((.def_15 (not A24))) (let ((.def_16 (and .def_15 .def_14))) (let ((.def_17 (not .def_16))) (let ((.def_18 (not A4))) (let ((.def_19 (or .def_18 A5))) (let ((.def_20 (not .def_19))) (let ((.def_21 (or .def_20 .def_17))) (let ((.def_22 (not .def_21))) (let ((.def_23 (not A17))) (let ((.def_24 (not A10))) (let ((.def_25 (and .def_24 .def_23))) (let ((.def_26 (not .def_25))) (let ((.def_27 (not A13))) (let ((.def_28 (and .def_27 .def_14))) (let ((.def_29 (or .def_28 .def_26))) (let ((.def_30 (not .def_29))) (let ((.def_31 (= .def_30 .def_22))) (let ((.def_32 (not .def_31))) (let ((.def_33 (= .def_32 .def_13))) (let ((.def_34 (not .def_33))) (let ((.def_35 (or A5 A22))) (let ((.def_36 (not A2))) (let ((.def_37 (or A12 .def_36))) (let ((.def_38 (= .def_37 .def_35))) (let ((.def_39 (and A8 A0))) (let ((.def_40 (not A19))) (let ((.def_41 (and .def_40 .def_36))) (let ((.def_42 (not .def_41))) (let ((.def_43 (= .def_42 .def_39))) (let ((.def_44 (and .def_43 .def_38))) (let ((.def_45 (or A23 A8))) (let ((.def_46 (not A11))) (let ((.def_47 (and A12 .def_46))) (let ((.def_48 (and .def_47 .def_45))) (let ((.def_49 (not .def_48))) (let ((.def_50 (not A8))) (let ((.def_51 (not A18))) (let ((.def_52 (or .def_51 .def_50))) (let ((.def_53 (not .def_52))) (let ((.def_54 (not A14))) (let ((.def_55 (or A22 .def_54))) (let ((.def_56 (= .def_55 .def_53))) (let ((.def_57 (not .def_56))) (let ((.def_58 (and .def_57 .def_49))) (let ((.def_59 (not .def_58))) (let ((.def_60 (and .def_59 .def_44))) (let ((.def_61 (= .def_60 .def_34))) (let ((.def_62 (not .def_61))) (let ((.def_63 (not A3))) (let ((.def_64 (and .def_63 A23))) (let ((.def_65 (or .def_36 .def_27))) (let ((.def_66 (or .def_65 .def_64))) (let ((.def_67 (not .def_66))) (let ((.def_68 (not A7))) (let ((.def_69 (and .def_68 A21))) (let ((.def_70 (and A17 A23))) (let ((.def_71 (or .def_70 .def_69))) (let ((.def_72 (and .def_71 .def_67))) (let ((.def_73 (and A18 A2))) (let ((.def_74 (and .def_8 A12))) (let ((.def_75 (or .def_74 .def_73))) (let ((.def_76 (not .def_75))) (let ((.def_77 (and .def_50 A18))) (let ((.def_78 (not .def_77))) (let ((.def_79 (= A6 A10))) (let ((.def_80 (and .def_79 .def_78))) (let ((.def_81 (not .def_80))) (let ((.def_82 (and .def_81 .def_76))) (let ((.def_83 (not .def_82))) (let ((.def_84 (and .def_83 .def_72))) (let ((.def_85 (not .def_84))) (let ((.def_86 (not A5))) (let ((.def_87 (and .def_86 A2))) (let ((.def_88 (or .def_14 .def_18))) (let ((.def_89 (and .def_88 .def_87))) (let ((.def_90 (not .def_89))) (let ((.def_91 (or A0 .def_86))) (let ((.def_92 (or .def_36 .def_51))) (let ((.def_93 (or .def_92 .def_91))) (let ((.def_94 (not .def_93))) (let ((.def_95 (or .def_94 .def_90))) (let ((.def_96 (and .def_18 .def_14))) (let ((.def_97 (= .def_86 A4))) (let ((.def_98 (and .def_97 .def_96))) (let ((.def_99 (not A12))) (let ((.def_100 (and .def_0 .def_99))) (let ((.def_101 (and A3 .def_40))) (let ((.def_102 (not .def_101))) (let ((.def_103 (= .def_102 .def_100))) (let ((.def_104 (not .def_103))) (let ((.def_105 (or .def_104 .def_98))) (let ((.def_106 (not .def_105))) (let ((.def_107 (and .def_106 .def_95))) (let ((.def_108 (or .def_107 .def_85))) (let ((.def_109 (not .def_108))) (let ((.def_110 (and .def_109 .def_62))) (let ((.def_111 (and .def_54 .def_68))) (let ((.def_112 (and A17 A2))) (let ((.def_113 (or .def_112 .def_111))) (let ((.def_114 (not A6))) (let ((.def_115 (and .def_114 A11))) (let ((.def_116 (and .def_86 A8))) (let ((.def_117 (not .def_116))) (let ((.def_118 (and .def_117 .def_115))) (let ((.def_119 (and .def_118 .def_113))) (let ((.def_120 (not A22))) (let ((.def_121 (and .def_46 .def_120))) (let ((.def_122 (not .def_121))) (let ((.def_123 (and .def_23 .def_18))) (let ((.def_124 (and .def_123 .def_122))) (let ((.def_125 (or .def_15 .def_27))) (let ((.def_126 (or .def_8 .def_120))) (let ((.def_127 (and .def_126 .def_125))) (let ((.def_128 (and .def_127 .def_124))) (let ((.def_129 (not .def_128))) (let ((.def_130 (= .def_129 .def_119))) (let ((.def_131 (and .def_120 A1))) (let ((.def_132 (not .def_131))) (let ((.def_133 (not A23))) (let ((.def_134 (or .def_133 .def_54))) (let ((.def_135 (and .def_134 .def_132))) (let ((.def_136 (not .def_135))) (let ((.def_137 (or .def_46 A0))) (let ((.def_138 (not .def_137))) (let ((.def_139 (or A14 .def_40))) (let ((.def_140 (not .def_139))) (let ((.def_141 (or .def_140 .def_138))) (let ((.def_142 (or .def_141 .def_136))) (let ((.def_143 (not .def_142))) (let ((.def_144 (or A16 .def_14))) (let ((.def_145 (or .def_24 .def_120))) (let ((.def_146 (and .def_145 .def_144))) (let ((.def_147 (not .def_146))) (let ((.def_148 (and .def_68 A6))) (let ((.def_149 (not .def_148))) (let ((.def_150 (and A20 A14))) (let ((.def_151 (and .def_150 .def_149))) (let ((.def_152 (not .def_151))) (let ((.def_153 (or .def_152 .def_147))) (let ((.def_154 (and .def_153 .def_143))) (let ((.def_155 (not .def_154))) (let ((.def_156 (or .def_155 .def_130))) (let ((.def_157 (not .def_156))) (let ((.def_158 (or A21 A19))) (let ((.def_159 (not .def_158))) (let ((.def_160 (or .def_0 A9))) (let ((.def_161 (not .def_160))) (let ((.def_162 (= .def_161 .def_159))) (let ((.def_163 (or A10 A9))) (let ((.def_164 (or .def_51 A22))) (let ((.def_165 (or .def_164 .def_163))) (let ((.def_166 (and .def_165 .def_162))) (let ((.def_167 (not .def_166))) (let ((.def_168 (or A6 .def_63))) (let ((.def_169 (not .def_168))) (let ((.def_170 (and .def_50 .def_1))) (let ((.def_171 (or .def_170 .def_169))) (let ((.def_172 (or .def_46 A2))) (let ((.def_173 (or A22 A6))) (let ((.def_174 (or .def_173 .def_172))) (let ((.def_175 (and .def_174 .def_171))) (let ((.def_176 (and .def_175 .def_167))) (let ((.def_177 (not .def_176))) (let ((.def_178 (or .def_68 A0))) (let ((.def_179 (not .def_178))) (let ((.def_180 (or A10 A20))) (let ((.def_181 (not .def_180))) (let ((.def_182 (and .def_181 .def_179))) (let ((.def_183 (and A3 .def_99))) (let ((.def_184 (not .def_183))) (let ((.def_185 (and A5 A12))) (let ((.def_186 (or .def_185 .def_184))) (let ((.def_187 (not .def_186))) (let ((.def_188 (or .def_187 .def_182))) (let ((.def_189 (not .def_188))) (let ((.def_190 (or .def_46 .def_3))) (let ((.def_191 (not .def_190))) (let ((.def_192 (or A11 .def_8))) (let ((.def_193 (and .def_192 .def_191))) (let ((.def_194 (and A21 A19))) (let ((.def_195 (not .def_194))) (let ((.def_196 (or A9 .def_63))) (let ((.def_197 (or .def_196 .def_195))) (let ((.def_198 (not .def_197))) (let ((.def_199 (or .def_198 .def_193))) (let ((.def_200 (not .def_199))) (let ((.def_201 (or .def_200 .def_189))) (let ((.def_202 (not .def_201))) (let ((.def_203 (or .def_202 .def_177))) (let ((.def_204 (not .def_203))) (let ((.def_205 (or .def_204 .def_157))) (let ((.def_206 (not .def_205))) (let ((.def_207 (and .def_206 .def_110))) (let ((.def_208 (or .def_0 A21))) (let ((.def_209 (not .def_208))) (let ((.def_210 (and A24 A0))) (let ((.def_211 (and .def_210 .def_209))) (let ((.def_212 (or .def_15 A12))) (let ((.def_213 (= A24 A1))) (let ((.def_214 (and .def_213 .def_212))) (let ((.def_215 (not .def_214))) (let ((.def_216 (and .def_215 .def_211))) (let ((.def_217 (not .def_216))) (let ((.def_218 (or A11 A14))) (let ((.def_219 (and .def_99 A22))) (let ((.def_220 (and .def_219 .def_218))) (let ((.def_221 (and .def_0 A17))) (let ((.def_222 (or A20 A1))) (let ((.def_223 (not .def_222))) (let ((.def_224 (or .def_223 .def_221))) (let ((.def_225 (and .def_224 .def_220))) (let ((.def_226 (and .def_225 .def_217))) (let ((.def_227 (and A13 .def_23))) (let ((.def_228 (and .def_54 .def_36))) (let ((.def_229 (and .def_228 .def_227))) (let ((.def_230 (and .def_1 A15))) (let ((.def_231 (not .def_230))) (let ((.def_232 (or A17 A3))) (let ((.def_233 (not .def_232))) (let ((.def_234 (and .def_233 .def_231))) (let ((.def_235 (not .def_234))) (let ((.def_236 (and .def_235 .def_229))) (let ((.def_237 (not .def_236))) (let ((.def_238 (and .def_15 .def_50))) (let ((.def_239 (not .def_238))) (let ((.def_240 (and A19 A12))) (let ((.def_241 (not .def_240))) (let ((.def_242 (or .def_241 .def_239))) (let ((.def_243 (not .def_242))) (let ((.def_244 (or A2 A19))) (let ((.def_245 (not .def_244))) (let ((.def_246 (= .def_40 A0))) (let ((.def_247 (and .def_246 .def_245))) (let ((.def_248 (and .def_247 .def_243))) (let ((.def_249 (and .def_248 .def_237))) (let ((.def_250 (= .def_249 .def_226))) (let ((.def_251 (not .def_250))) (let ((.def_252 (or A3 A18))) (let ((.def_253 (not .def_252))) (let ((.def_254 (or A16 A3))) (let ((.def_255 (not .def_254))) (let ((.def_256 (= .def_255 .def_253))) (let ((.def_257 (or .def_114 A11))) (let ((.def_258 (not .def_257))) (let ((.def_259 (or A24 A16))) (let ((.def_260 (or .def_259 .def_258))) (let ((.def_261 (or .def_260 .def_256))) (let ((.def_262 (and A19 A15))) (let ((.def_263 (not .def_262))) (let ((.def_264 (or .def_63 A20))) (let ((.def_265 (not .def_264))) (let ((.def_266 (or .def_265 .def_263))) (let ((.def_267 (not .def_266))) (let ((.def_268 (or A2 .def_51))) (let ((.def_269 (not .def_268))) (let ((.def_270 (or A0 .def_0))) (let ((.def_271 (not .def_270))) (let ((.def_272 (and .def_271 .def_269))) (let ((.def_273 (not .def_272))) (let ((.def_274 (or .def_273 .def_267))) (let ((.def_275 (and .def_274 .def_261))) (let ((.def_276 (and A20 .def_15))) (let ((.def_277 (not .def_276))) (let ((.def_278 (and .def_68 A4))) (let ((.def_279 (not .def_278))) (let ((.def_280 (and .def_279 .def_277))) (let ((.def_281 (not .def_280))) (let ((.def_282 (= A14 .def_27))) (let ((.def_283 (not .def_282))) (let ((.def_284 (or .def_36 .def_8))) (let ((.def_285 (not .def_284))) (let ((.def_286 (or .def_285 .def_283))) (let ((.def_287 (or .def_286 .def_281))) (let ((.def_288 (not .def_287))) (let ((.def_289 (= .def_23 A24))) (let ((.def_290 (not .def_289))) (let ((.def_291 (= A13 A5))) (let ((.def_292 (not .def_291))) (let ((.def_293 (or .def_292 .def_290))) (let ((.def_294 (and .def_51 A8))) (let ((.def_295 (not .def_294))) (let ((.def_296 (and A10 .def_63))) (let ((.def_297 (not .def_296))) (let ((.def_298 (and .def_297 .def_295))) (let ((.def_299 (and .def_298 .def_293))) (let ((.def_300 (not .def_299))) (let ((.def_301 (or .def_300 .def_288))) (let ((.def_302 (not .def_301))) (let ((.def_303 (= .def_302 .def_275))) (let ((.def_304 (not .def_303))) (let ((.def_305 (or .def_304 .def_251))) (let ((.def_306 (or .def_3 .def_114))) (let ((.def_307 (= A5 .def_54))) (let ((.def_308 (and .def_307 .def_306))) (let ((.def_309 (not .def_308))) (let ((.def_310 (or .def_8 A16))) (let ((.def_311 (not .def_310))) (let ((.def_312 (= .def_311 .def_16))) (let ((.def_313 (and .def_312 .def_309))) (let ((.def_314 (not .def_313))) (let ((.def_315 (and .def_86 .def_27))) (let ((.def_316 (not .def_315))) (let ((.def_317 (or .def_86 A19))) (let ((.def_318 (= .def_317 .def_316))) (let ((.def_319 (not .def_318))) (let ((.def_320 (or A19 .def_51))) (let ((.def_321 (not .def_320))) (let ((.def_322 (not A9))) (let ((.def_323 (= A11 .def_322))) (let ((.def_324 (not .def_323))) (let ((.def_325 (and .def_324 .def_321))) (let ((.def_326 (not .def_325))) (let ((.def_327 (= .def_326 .def_319))) (let ((.def_328 (not .def_327))) (let ((.def_329 (and .def_328 .def_314))) (let ((.def_330 (not .def_329))) (let ((.def_331 (and A1 .def_1))) (let ((.def_332 (not .def_331))) (let ((.def_333 (= .def_120 A6))) (let ((.def_334 (or .def_333 .def_332))) (let ((.def_335 (or .def_120 A15))) (let ((.def_336 (not .def_335))) (let ((.def_337 (= .def_99 A9))) (let ((.def_338 (not .def_337))) (let ((.def_339 (or .def_338 .def_336))) (let ((.def_340 (and .def_339 .def_334))) (let ((.def_341 (not .def_340))) (let ((.def_342 (and A13 .def_0))) (let ((.def_343 (not .def_342))) (let ((.def_344 (or A20 .def_86))) (let ((.def_345 (not .def_344))) (let ((.def_346 (or .def_345 .def_343))) (let ((.def_347 (and .def_99 A6))) (let ((.def_348 (not .def_347))) (let ((.def_349 (not A16))) (let ((.def_350 (or .def_120 .def_349))) (let ((.def_351 (not .def_350))) (let ((.def_352 (or .def_351 .def_348))) (let ((.def_353 (or .def_352 .def_346))) (let ((.def_354 (and .def_353 .def_341))) (let ((.def_355 (or .def_354 .def_330))) (let ((.def_356 (not .def_355))) (let ((.def_357 (and .def_68 A3))) (let ((.def_358 (not .def_357))) (let ((.def_359 (and .def_1 .def_36))) (let ((.def_360 (and .def_359 .def_358))) (let ((.def_361 (and A22 A1))) (let ((.def_362 (not .def_361))) (let ((.def_363 (and A10 .def_322))) (let ((.def_364 (not .def_363))) (let ((.def_365 (and .def_364 .def_362))) (let ((.def_366 (and .def_365 .def_360))) (let ((.def_367 (not .def_366))) (let ((.def_368 (and .def_18 .def_68))) (let ((.def_369 (or .def_120 A20))) (let ((.def_370 (not .def_369))) (let ((.def_371 (and .def_370 .def_368))) (let ((.def_372 (not .def_371))) (let ((.def_373 (or .def_114 A6))) (let ((.def_374 (or .def_15 A14))) (let ((.def_375 (or .def_374 .def_373))) (let ((.def_376 (not .def_375))) (let ((.def_377 (= .def_376 .def_372))) (let ((.def_378 (not .def_377))) (let ((.def_379 (or .def_378 .def_367))) (let ((.def_380 (not .def_96))) (let ((.def_381 (= .def_24 A3))) (let ((.def_382 (and .def_381 .def_380))) (let ((.def_383 (or A12 A0))) (let ((.def_384 (not .def_383))) (let ((.def_385 (and .def_24 .def_349))) (let ((.def_386 (not .def_385))) (let ((.def_387 (= .def_386 .def_384))) (let ((.def_388 (not .def_387))) (let ((.def_389 (= .def_388 .def_382))) (let ((.def_390 (and A18 .def_63))) (let ((.def_391 (not .def_390))) (let ((.def_392 (or .def_15 .def_322))) (let ((.def_393 (or .def_392 .def_391))) (let ((.def_394 (and A8 .def_46))) (let ((.def_395 (and .def_114 A1))) (let ((.def_396 (not .def_395))) (let ((.def_397 (or .def_396 .def_394))) (let ((.def_398 (and .def_397 .def_393))) (let ((.def_399 (not .def_398))) (let ((.def_400 (and .def_399 .def_389))) (let ((.def_401 (or .def_400 .def_379))) (let ((.def_402 (not .def_401))) (let ((.def_403 (and .def_402 .def_356))) (let ((.def_404 (or .def_403 .def_305))) (let ((.def_405 (or .def_404 .def_207))) (let ((.def_406 (not .def_405))) .def_406))))))))))))))))))))))))))))))))))))))))))))))))))))))))))))))))))))))))))))))))))))))))))))))))))))))))))))))))))))))))))))))))))))))))))))))))))))))))))))))))))))))))))))))))))))))))))))))))))))))))))))))))))))))))))))))))))))))))))))))))))))))))))))))))))))))))))))))))))))))))))))))))))))))))))))))))))))))))))))))))))))))))))))))))))))))))))))))))))))))))))))))))))))))))))))))))))))))))))))))))))))))))
(check-sat)
